certificates/rado_a13_c262_N26.cnf
c Rad2 upper bound instance: x1 + 13*x2 - x3 = 262, interval [1,26]
p cnf 26 104
1 12 21 0
-1 -12 -21 0
1 22 25 0
-1 -22 -25 0
2 13 21 0
-2 -13 -21 0
2 22 26 0
-2 -22 -26 0
1 3 20 0
-1 -3 -20 0
3 14 21 0
-3 -14 -21 0
2 4 20 0
-2 -4 -20 0
4 15 21 0
-4 -15 -21 0
3 5 20 0
-3 -5 -20 0
5 16 21 0
-5 -16 -21 0
4 6 20 0
-4 -6 -20 0
6 17 21 0
-6 -17 -21 0
5 7 20 0
-5 -7 -20 0
7 18 21 0
-7 -18 -21 0
6 8 20 0
-6 -8 -20 0
8 19 21 0
-8 -19 -21 0
7 9 20 0
-7 -9 -20 0
9 20 21 0
-9 -20 -21 0
8 10 20 0
-8 -10 -20 0
10 21 0
-10 -21 0
9 11 20 0
-9 -11 -20 0
11 21 22 0
-11 -21 -22 0
10 12 20 0
-10 -12 -20 0
12 21 23 0
-12 -21 -23 0
11 13 20 0
-11 -13 -20 0
13 21 24 0
-13 -21 -24 0
12 14 20 0
-12 -14 -20 0
14 21 25 0
-14 -21 -25 0
13 15 20 0
-13 -15 -20 0
15 21 26 0
-15 -21 -26 0
1 16 19 0
-1 -16 -19 0
14 16 20 0
-14 -16 -20 0
2 17 19 0
-2 -17 -19 0
15 17 20 0
-15 -17 -20 0
3 18 19 0
-3 -18 -19 0
16 18 20 0
-16 -18 -20 0
4 19 0
-4 -19 0
17 19 20 0
-17 -19 -20 0
5 19 20 0
-5 -19 -20 0
18 20 0
-18 -20 0
6 19 21 0
-6 -19 -21 0
19 20 21 0
-19 -20 -21 0
7 19 22 0
-7 -19 -22 0
20 22 0
-20 -22 0
8 19 23 0
-8 -19 -23 0
20 21 23 0
-20 -21 -23 0
9 19 24 0
-9 -19 -24 0
20 22 24 0
-20 -22 -24 0
10 19 25 0
-10 -19 -25 0
20 23 25 0
-20 -23 -25 0
11 19 26 0
-11 -19 -26 0
20 24 26 0
-20 -24 -26 0
