certificates/rado_a13_c262_N26.drat
20 -25 0
-21 24 -20 0
-25 -26 0
-20 -13 21 0
21 24 -26 0
24 -26 0
d 21 24 -26 0
-26 0
20 13 -21 0
13 -21 0
d 20 13 -21 0
-21 -24 0
d -13 -21 -24 0
-20 21 0
d -20 -13 21 0
-24 0
20 0
-18 0
-22 0
-21 0
0
